Version identifier: 22.1.1.0 | 2022-11-28 | 9160aff4d
CPXPARAM_ClockType                               1
CPXPARAM_Read_DataCheck                          1
CPXPARAM_Threads                                 1
CPXPARAM_TimeLimit                               7200
CPXPARAM_MIP_Tolerances_AbsMIPGap                0
CPXPARAM_MIP_Tolerances_MIPGap                   0
CPXPARAM_MIP_Tolerances_Integrality              0
Tried aggregator 2 times.
MIP Presolve eliminated 737 rows and 4 columns.
MIP Presolve modified 378 coefficients.
Aggregator did 150 substitutions.
Reduced MIP has 4384 rows, 1946 columns, and 14456 nonzeros.
Reduced MIP has 1946 binaries, 0 generals, 0 SOSs, and 0 indicators.
Presolve time = 0.01 sec. (13.82 ticks)
Probing time = 0.00 sec. (2.58 ticks)
Tried aggregator 1 time.
Detecting symmetries...
MIP Presolve eliminated 250 rows and 0 columns.
Reduced MIP has 4134 rows, 1946 columns, and 13706 nonzeros.
Reduced MIP has 1946 binaries, 0 generals, 0 SOSs, and 0 indicators.
Presolve time = 0.01 sec. (10.97 ticks)
Probing time = 0.00 sec. (2.53 ticks)
Clique table members: 2795.
MIP emphasis: balance optimality and feasibility.
MIP search method: dynamic search.
Parallel mode: none, using 1 thread.
Root relaxation solution time = 0.17 sec. (111.99 ticks)

        Nodes                                         Cuts/
   Node  Left     Objective  IInf  Best Integer    Best Bound    ItCnt     Gap

      0     0      800.0000   601                    800.0000     1297         
      0     0      800.0000   559                    Cuts: 28     1428         
      0     0      800.0000   585                   Cuts: 110     1639         
      0     0      800.0000   530                     Cuts: 2     1697         
      0     0      800.0000   578                ZeroHalf: 96     1918         
*     0+    0                            0.0000      800.0000              --- 
*     0+    0                           16.0000      800.0000              --- 
      0     0        cutoff             16.0000      800.0000     1918     --- 
Detecting symmetries...
      0     2      800.0000   526       16.0000      800.0000     1918     --- 
Elapsed time = 2.51 sec. (1431.21 ticks, tree = 0.01 MB, solutions = 2)
      4     6      800.0000   552       16.0000      800.0000     3558     --- 
      8    10      800.0000   479       16.0000      800.0000     5809     --- 
     10    10    infeasible             16.0000      800.0000     8924     --- 
     12    10      800.0000   466       16.0000      800.0000    11237     --- 
     16    12      800.0000   325       16.0000      800.0000    13599     --- 
     24    16      800.0000    42       16.0000      800.0000    15583     --- 
*    30     1      integral     0      800.0000      800.0000    15849    0.00%

Implied bound cuts applied:  1
Zero-half cuts applied:  19
Gomory fractional cuts applied:  2

Root node processing (before b&c):
  Real time             =    2.50 sec. (1429.85 ticks)
Sequential b&c:
  Real time             =    2.77 sec. (1927.01 ticks)
                          ------------
Total (root+branch&cut) =    5.27 sec. (3356.86 ticks)
Solution is feasible.

---------------------
@@@ MIP_optimal
>>> Benchmark flat50-3.cnf k 5 OPT 800 TimeCost 5.62590479850769 TimeSolve 5.330813407897949 TimeRead 0.014115333557128906 TimeTrans 0.2809760570526123
